; benchmark generated from python API
(set-info :status unknown)
(declare-fun S_1 () Real)
(declare-fun S_5 () Real)
(declare-fun C () Real)
(declare-fun S_2 () Real)
(declare-fun S_3 () Real)
(declare-fun S_4 () Real)
(declare-fun A_0 () Real)
(declare-fun L_0 () Real)
(declare-fun S_0 () Real)
(declare-fun A_1 () Real)
(declare-fun L0 () Real)
(declare-fun A_2 () Real)
(declare-fun A_3 () Real)
(declare-fun A_4 () Real)
(declare-fun A_5 () Real)
(assert
 (let (($x42 (>= L0 0.0)))
 (let (($x924 (>= C 5.0)))
 (let (($x140 (>= S_4 S_3)))
 (let (($x147 (>= A_3 A_2)))
 (let (($x41 (>= L_0 L0)))
 (let (($x131 (>= S_1 S_0)))
 (let (($x134 (>= S_2 S_1)))
 (let (($x137 (>= S_3 S_2)))
 (let (($x143 (>= S_5 S_4)))
 (let (($x146 (>= A_2 A_1)))
 (let (($x148 (>= A_4 A_3)))
 (let (($x149 (>= A_5 A_4)))
 (and (<= (+ A_0 (* (- 1.0) L_0)) S_5) $x149 $x148 $x146 $x143 $x137 $x134 $x131 $x41 $x147 $x140 $x924 $x42 (<= (+ L_0 (* (- 1.0) A_0) S_0) 0.0) (not (>= (+ L_0 (* (- 1.0) A_1) S_5) 0.0)) (<= (+ C (* (- 1.0) S_2) S_0) 0.0) (<= (+ (* 2.0 C) (* (- 1.0) S_3) S_0) 0.0) (<= (+ (* 3.0 C) (* (- 1.0) S_4) S_0) 0.0) (<= (+ (* 4.0 C) (* (- 1.0) S_5) S_0) 0.0) (<= (+ C S_3 (* (- 1.0) S_5)) 0.0) (<= (+ (* (- 2.0) C) L_0 S_2 (* (- 1.0) A_0)) 0.0) (<= (+ (* (- 3.0) C) S_2 (* (- 1.0) S_0)) 0.0) (<= (+ (* (- 2.0) C) (* (- 1.0) S_3) S_4) 0.0) (<= (+ (* (- 2.0) C) S_3 (* (- 1.0) S_2)) 0.0) (<= (+ (* (- 4.0) C) S_4 (* (- 1.0) A_0) L_0) 0.0) (<= (+ (* (- 4.0) C) S_3 (* (- 1.0) S_0)) 0.0) (<= (+ (* (- 5.0) C) S_5 (* (- 1.0) S_1)) 0.0) (<= (+ (* (- 2.0) C) S_5 (* (- 1.0) S_4)) 0.0) (<= (+ (* (- 5.0) C) L_0 S_5 (* (- 1.0) A_0)) 0.0) (<= (+ (* (- 6.0) C) S_5 (* (- 1.0) S_0)) 0.0) (<= (+ (* (- 4.0) C) S_5 (* (- 1.0) S_2)) 0.0) (<= (+ (* (- 3.0) C) (* (- 1.0) S_3) S_5) 0.0) (<= (+ (* (- 5.0) C) S_4 (* (- 1.0) S_0)) 0.0) (<= (+ (* (- 3.0) C) S_4 (* (- 1.0) S_2)) 0.0) (<= (+ (* (- 1.0) C) L_0 (* (- 1.0) A_0) S_1) 0.0) (<= (+ C (* (- 1.0) S_3) S_1) 0.0) (<= (+ (* (- 2.0) C) S_2 (* (- 1.0) S_1)) 0.0) (<= (+ (* (- 4.0) C) S_4 (* (- 1.0) S_1)) 0.0) (<= (+ (* (- 2.0) C) S_1 (* (- 1.0) S_0)) 0.0) (<= (+ (* (- 3.0) C) L_0 S_3 (* (- 1.0) A_0)) 0.0) (<= (+ C (* (- 1.0) S_4) S_2) 0.0) (<= (+ (* 2.0 C) (* (- 1.0) S_4) S_1) 0.0) (<= (+ (* (- 3.0) C) S_3 (* (- 1.0) S_1)) 0.0) (<= (+ (* 2.0 C) (* (- 1.0) S_5) S_2) 0.0) (<= (+ (* 3.0 C) (* (- 1.0) S_5) S_1) 0.0)))))))))))))))
(check-sat)
